(declare-const a Real)
(declare-const b Real)
(declare-const c Real)
(assert (= (* a b c) 1))
(assert (> a 0))
(assert (> b 0))
(assert (> c 0))
(assert (not (<= (+ (* -44423512064 (pow a 4)) (* 26638848 (pow (+ (* 2 a) (* 2 b)) 4)) (* -231858569216 (pow a (/ 3538944 3537881)) (pow b (/ 10612580 3537881))) (* 63260327936 b (pow a 3)) (* 206202208256 a (pow b 3))) 0)))
(check-sat)
(get-model)
(exit)